
Gurobi 9.0.1 (linux64) logging started Thu Apr 30 19:14:04 2020

Gurobi Optimizer version 9.0.1 build v9.0.1rc0 (linux64)
Optimize a model with 32942 rows, 27380 columns and 605400 nonzeros
Model fingerprint: 0xc5ff64b6
Variable types: 0 continuous, 27380 integer (27342 binary)
Coefficient statistics:
  Matrix range     [1e+00, 2e+01]
  Objective range  [3e+00, 1e+02]
  Bounds range     [1e+00, 1e+00]
  RHS range        [1e+00, 1e+00]

User MIP start produced solution with objective 1186 (0.86s)
Loaded user MIP start with objective 1186

Presolve removed 15662 rows and 10109 columns (presolve time = 5s) ...
Presolve removed 15662 rows and 10169 columns (presolve time = 11s) ...
Presolve removed 15704 rows and 10169 columns
Presolve time: 13.58s
Presolved: 17238 rows, 17211 columns, 369620 nonzeros
Variable types: 0 continuous, 17211 integer (17211 binary)

Root simplex log...

Iteration    Objective       Primal Inf.    Dual Inf.      Time
       0    0.0000000e+00   1.580000e+02   0.000000e+00     16s
    2836    5.4806799e+02   2.652791e+04   0.000000e+00     20s
    4536    5.6275683e+02   1.660832e+04   0.000000e+00     25s
    5994    5.7080546e+02   9.848348e+03   0.000000e+00     30s
    7209    5.7849886e+02   5.912363e+04   0.000000e+00     35s
    8424    5.8511748e+02   3.919102e+05   0.000000e+00     40s
    9558    5.8708963e+02   1.945253e+03   0.000000e+00     45s
   10597    5.8950218e+02   1.748954e+03   0.000000e+00     50s
   11648    5.9118364e+02   5.131922e+03   0.000000e+00     55s
   12592    5.9229128e+02   2.740008e+03   0.000000e+00     60s
   13432    5.9397809e+02   6.876694e+02   0.000000e+00     66s
   14112    5.9550189e+02   9.336708e+02   0.000000e+00     70s
   14983    5.9711143e+02   2.128397e+02   0.000000e+00     75s
   15583    5.9741121e+02   0.000000e+00   0.000000e+00     79s

Root relaxation: objective 5.974112e+02, 15583 iterations, 64.63 seconds

    Nodes    |    Current Node    |     Objective Bounds      |     Work
 Expl Unexpl |  Obj  Depth IntInf | Incumbent    BestBd   Gap | It/Node Time

     0     0  597.41121    0 1976 1186.00000  597.41121  49.6%     -   87s
     0     0  622.05272    0 1937 1186.00000  622.05272  47.6%     -  132s
     0     0  622.19694    0 1946 1186.00000  622.19694  47.5%     -  139s
     0     0  622.19760    0 1946 1186.00000  622.19760  47.5%     -  140s
     0     0  640.01726    0 1999 1186.00000  640.01726  46.0%     -  189s
     0     0  640.51269    0 1994 1186.00000  640.51269  46.0%     -  203s
     0     0  640.52039    0 1992 1186.00000  640.52039  46.0%     -  205s
     0     0  640.52061    0 1991 1186.00000  640.52061  46.0%     -  205s
     0     0  649.14125    0 2042 1186.00000  649.14125  45.3%     -  261s
     0     0  649.84740    0 2035 1186.00000  649.84740  45.2%     -  280s
     0     0  649.99886    0 2040 1186.00000  649.99886  45.2%     -  284s
     0     0  650.00766    0 2044 1186.00000  650.00766  45.2%     -  287s
     0     0  650.01044    0 2038 1186.00000  650.01044  45.2%     -  288s
     0     0  658.35112    0 2051 1186.00000  658.35112  44.5%     -  346s
     0     0  659.24908    0 2062 1186.00000  659.24908  44.4%     -  358s
     0     0  659.37650    0 2052 1186.00000  659.37650  44.4%     -  364s
     0     0  659.41045    0 2054 1186.00000  659.41045  44.4%     -  367s
     0     0  659.41363    0 2047 1186.00000  659.41363  44.4%     -  369s
     0     0  660.54971    0 2056 1186.00000  660.54971  44.3%     -  394s
     0     0  660.67328    0 2057 1186.00000  660.67328  44.3%     -  412s
     0     0  660.69125    0 2051 1186.00000  660.69125  44.3%     -  414s
     0     0  660.70419    0 2044 1186.00000  660.70419  44.3%     -  417s
     0     0  660.70573    0 2044 1186.00000  660.70573  44.3%     -  418s
     0     0  661.90618    0 2052 1186.00000  661.90618  44.2%     -  441s
     0     0  662.01643    0 2071 1186.00000  662.01643  44.2%     -  448s
     0     0  662.05746    0 2064 1186.00000  662.05746  44.2%     -  452s
     0     0  662.05900    0 2058 1186.00000  662.05900  44.2%     -  454s
     0     0  662.29117    0 2067 1186.00000  662.29117  44.2%     -  472s
     0     0  662.32575    0 2062 1186.00000  662.32575  44.2%     -  476s
     0     0  662.33073    0 2068 1186.00000  662.33073  44.2%     -  478s
     0     0  662.73910    0 2061 1186.00000  662.73910  44.1%     -  493s
     0     0  662.83176    0 2065 1186.00000  662.83176  44.1%     -  500s
     0     0  662.84738    0 2075 1186.00000  662.84738  44.1%     -  503s
     0     0  662.84935    0 2075 1186.00000  662.84935  44.1%     -  505s
     0     0  662.88300    0 2076 1186.00000  662.88300  44.1%     -  519s
     0     0  662.88993    0 2076 1186.00000  662.88993  44.1%     -  522s
     0     0  662.90952    0 2087 1186.00000  662.90952  44.1%     -  533s
     0     0  662.91318    0 2085 1186.00000  662.91318  44.1%     -  536s
     0     0  663.25311    0 2084 1186.00000  663.25311  44.1%     -  552s
     0     0  663.30298    0 2092 1186.00000  663.30298  44.1%     -  558s
     0     0  663.31906    0 2082 1186.00000  663.31906  44.1%     -  560s
     0     0  663.32144    0 2082 1186.00000  663.32144  44.1%     -  562s
     0     0  663.64978    0 2078 1186.00000  663.64978  44.0%     -  579s
     0     0  663.68640    0 2076 1186.00000  663.68640  44.0%     -  584s
     0     0  663.69756    0 2078 1186.00000  663.69756  44.0%     -  587s
     0     0  663.98306    0 2081 1186.00000  663.98306  44.0%     -  603s
     0     0  664.05007    0 2071 1186.00000  664.05007  44.0%     -  608s
     0     0  664.07043    0 2065 1186.00000  664.07043  44.0%     -  612s
     0     0  664.07394    0 2072 1186.00000  664.07394  44.0%     -  613s
     0     0  664.10260    0 2078 1186.00000  664.10260  44.0%     -  625s
     0     0  664.11717    0 2085 1186.00000  664.11717  44.0%     -  643s
     0     0  664.12032    0 2083 1186.00000  664.12032  44.0%     -  644s
     0     0  664.14314    0 2075 1186.00000  664.14314  44.0%     -  659s
     0     0  664.14314    0 2075 1186.00000  664.14314  44.0%     -  669s
     0     2  664.15814    0 2075 1186.00000  664.15814  44.0%     -  734s
     1     3  664.42465    1 2072 1186.00000  664.15814  44.0%   966  741s
     2     4  689.76879    1 1864 1186.00000  664.42525  44.0%  8916  867s
     3     5  665.33985    2 2077 1186.00000  664.42525  44.0%  6430  879s
     4     6  690.19526    2 1924 1186.00000  665.34046  43.9%  7166  950s
     5     7  666.16907    3 2054 1186.00000  665.34068  43.9%  5997  961s
     6     8  669.79614    4 2077 1186.00000  665.34068  43.9%  5604  989s
     7     9  701.94125    4 1855 1186.00000  665.34068  43.9%  6560 1077s
     8    10  669.92124    5 2066 1186.00000  665.34068  43.9%  5818 1082s
     9    11  670.16106    6 2057 1186.00000  665.34068  43.9%  5242 1087s
    10    12  712.57378    6 1935 1186.00000  665.34068  43.9%  5701 1152s
    11    13  671.66743    7 2037 1186.00000  665.34068  43.9%  5430 1168s
    12    14  700.91582    7 1848 1186.00000  665.34068  43.9%  5776 1228s
    13    15  699.42764    8 1873 1186.00000  665.34068  43.9%  6098 1289s
    14    16  672.62094    8 2039 1186.00000  665.34068  43.9%  5772 1300s
    15    17  673.11875    9 2044 1186.00000  665.34068  43.9%  5454 1308s
    16    18  673.98185   10 2035 1186.00000  665.34068  43.9%  5193 1317s
    17    19  696.32580   10 1899 1186.00000  665.34068  43.9%  5673 1410s
    18    20  674.26944   11 2037 1186.00000  665.34068  43.9%  5435 1417s
    19    21  674.46579   12 2028 1186.00000  665.34068  43.9%  5215 1424s
    20    22  723.47956   12 1866 1186.00000  665.34068  43.9%  5509 1495s
    21    23  674.55869   13 2042 1186.00000  665.34068  43.9%  5276 1500s
    22    24  675.02207   14 2038 1186.00000  665.34068  43.9%  5090 1508s
    23    25  675.37288   15 2020 1186.00000  665.34068  43.9%  4906 1514s
    24    26  675.68592   16 2018 1186.00000  665.34068  43.9%  4739 1521s
    25    27  723.96630   16 1850 1186.00000  665.34068  43.9%  5838 1734s
    26    28  675.88119   17 2027 1186.00000  665.34068  43.9%  5656 1741s
    27    29  676.36579   18 2018 1186.00000  665.34068  43.9%  5517 1762s
    28    30  723.10420   18 1867 1186.00000  665.34068  43.9%  5705 1828s
    29    31  676.61616   19 2013 1186.00000  665.34068  43.9%  5537 1834s
    30    32  723.04564   19 1838 1186.00000  665.34068  43.9%  5876 1944s
    31    33  676.91073   20 2026 1186.00000  665.34068  43.9%  5722 1950s
    32    34  723.61248   20 1819 1186.00000  665.34068  43.9%  5913 2149s
    33    35  677.90485   21 2004 1186.00000  665.34068  43.9%  5778 2160s
    34    36  725.45081   21 1874 1186.00000  665.34068  43.9%  6328 2318s
    35    37  679.15843   22 2019 1186.00000  665.34068  43.9%  6219 2332s
    36    38  723.61299   22 1863 1186.00000  665.34068  43.9%  6315 2388s
    37    39  679.23440   23 2023 1186.00000  665.34068  43.9%  6153 2390s
    38    40  679.66822   24 2024 1186.00000  665.34068  43.9%  6015 2396s
    40    42  679.88070   26 2024 1186.00000  665.34068  43.9%  5733 2402s
    41    43  679.98296   27 2028 1186.00000  665.34068  43.9%  5605 2405s
    43    45  724.56268   28 1842 1186.00000  665.34068  43.9%  5834 2546s
    44    46  681.01531   29 2020 1186.00000  665.34068  43.9%  5751 2557s
    45    47  726.86169   29 1852 1186.00000  665.34068  43.9%  5875 2625s
    47    49  726.84298   30 1844 1186.00000  665.34068  43.9%  6049 2755s
    48    50  681.63758   31 2012 1186.00000  665.34068  43.9%  5945 2760s
    49    51  731.41029   31 1882 1186.00000  665.34068  43.9%  6058 2826s
    50    52  681.99317   32 2007 1186.00000  665.34068  43.9%  5956 2832s
    51    53  735.62895   32 1907 1186.00000  665.34068  43.9%  6413 3025s
    52    54  682.73343   33 2004 1186.00000  665.34068  43.9%  6326 3035s
    53    55  713.79091   33 1829 1186.00000  665.34068  43.9%  6423 3099s
    54    56  683.14234   34 1993 1186.00000  665.34068  43.9%  6318 3117s
    55    57  728.75194   35 1821 1186.00000  665.34068  43.9%  6460 3215s
    56    58  683.81461   35 1992 1186.00000  665.34068  43.9%  6379 3226s
    57    59  684.25404   36 1988 1186.00000  665.34068  43.9%  6293 3233s
    58    60  728.51582   36 1835 1186.00000  665.34068  43.9%  6378 3300s
    59    61  686.13132   37 2017 1186.00000  665.34068  43.9%  6301 3314s
    60    62  745.04000   37 1879 1186.00000  665.34068  43.9%  6471 3426s
    61    63  686.48981   38 2002 1186.00000  665.34068  43.9%  6384 3432s
    62    64  730.58384   38 1855 1186.00000  665.34068  43.9%  6461 3497s
    63    65  686.91995   39 1990 1186.00000  665.34068  43.9%  6374 3503s

Cutting planes:
  Cover: 3
  MIR: 46
  StrongCG: 4
  Zero half: 23
  Mod-K: 2
  RLT: 612

Explored 64 nodes (456313 simplex iterations) in 3600.03 seconds
Thread count was 1 (of 40 available processors)

Solution count 1: 1186 

Time limit reached
Best objective 1.186000000000e+03, best bound 6.660000000000e+02, gap 43.8449%

User-callback calls 35575, time in user-callback 0.10 sec
